N = 10;
lengths = [295, 80, 340, 150, 170, 270, 40, 70, 1300, 670];
widths = [295, 30, 100, 80, 170, 50, 40, 70, 700, 60];
heights = [75, 20, 100, 60, 40, 30, 10, 70, 50, 60];
reds = [197, 132, 155, 111, 71, 75, 37, 51, 161, 226];
greens = [215, 248, 244, 71, 48, 158, 169, 181, 104, 133];
blues = [20, 207, 183, 144, 128, 50, 241, 222, 244, 31];
